unsat
(:SPACER-inductive-gen                9
 :SPACER-inductive-gen-weaken-fail    12
 :SPACER-inductive-level              4
 :SPACER-max-depth                    5
 :SPACER-max-query-lvl                5
 :SPACER-non-local-gen                1
 :SPACER-num-active-lemmas            8
 :SPACER-num-ctp-blocked              2
 :SPACER-num-invariants               6
 :SPACER-num-is_invariant             33
 :SPACER-num-lemmas                   15
 :SPACER-num-pobs                     6
 :SPACER-num-propagations             19
 :SPACER-num-queries                  10
 :added-eqs                           966
 :arith-assert-diseq                  254
 :arith-assert-lower                  978
 :arith-assert-upper                  1154
 :arith-bound-prop                    40
 :arith-conflicts                     6
 :arith-eq-adapter                    232
 :arith-fixed-eqs                     230
 :arith-num-rows                      30
 :arith-offset-eqs                    80
 :arith-pivots                        188
 :arith-row-summations                128
 :arith-tableau-max-columns           76
 :arith-tableau-max-rows              30
 :conflicts                           172
 :decisions                           894
 :del-clause                          360
 :final-checks                        56
 :iuc_solver.num_proxies              23
 :max-memory                          30.97
 :memory                              30.48
 :mk-bool-var                         1098
 :mk-clause                           770
 :num-allocs                          10288327
 :num-checks                          170
 :pool_solver.checks                  85
 :pool_solver.checks.sat              28
 :propagations                        4848
 :rlimit-count                        29346
 :time                                0.06
 :time.iuc_solver.get_iuc             0.00
 :time.iuc_solver.get_iuc.hyp_reduce2 0.00
 :time.iuc_solver.get_iuc.learn_core  0.00
 :time.pool_solver.proof              0.00
 :time.pool_solver.smt.total          0.02
 :time.pool_solver.smt.total.sat      0.01
 :time.spacer.init_rules              0.00
 :time.spacer.mbp                     0.00
 :time.spacer.solve                   0.04
 :time.spacer.solve.propagate         0.01
 :time.spacer.solve.reach             0.03
 :time.spacer.solve.reach.children    0.00
 :time.spacer.solve.reach.cluster     0.01
 :time.spacer.solve.reach.gen.global  0.00
 :time.spacer.solve.reach.gen.ind     0.00)
(:max-memory   30.97
 :memory       30.48
 :num-allocs   10288327
 :rlimit-count 29346
 :time         0.06
 :total-time   0.07)
